-59 -66 0
9 10 12 -66 0
10 12 -66 0
d 9 10 12 -66 0
11 -10 12 0
12 -66 0
d 10 12 -66 0
-5 -12 0
d -43 -5 -12 0
-66 0
13 0
9 -12 0
-12 0
50 0
28 0
-7 0
-8 0
45 0
44 0
49 0
29 0
46 0
30 0
34 0
-11 0
35 0
43 0
-10 0
48 0
31 0
33 0
-9 0
2 0
18 0
1 0
58 0
17 0
3 0
20 0
4 0
15 0
47 0
16 0
32 0
19 0
59 0
5 0
14 0
-55 0
-54 0
-6 0
0
